NAME: tsp45_22
COMMENT: 45-tsp problem (Padberg/Rinaldi)
TYPE: TSP
DIMENSION: 45
EDGE_WEIGHT_TYPE : EUC_2D
NODE_COORD_SECTION
1 23 22
2 9 6
3 32 16
4 10 13
5 24 9
6 15 0
7 23 14
8 38 37
9 11 32
10 29 36
11 35 17
12 38 28
13 15 2
14 34 33
15 28 5
16 16 38
17 39 7
18 40 8
19 1 8
20 32 36
21 35 20
22 35 7
23 24 26
24 20 23
25 1 22
26 35 11
27 8 30
28 28 5
29 13 0
30 30 23
31 26 31
32 6 11
33 8 18
34 31 23
35 1 7
36 28 32
37 4 13
38 26 3
39 15 10
40 17 1
41 14 2
42 37 30
43 5 1
44 38 9
45 17 11
